unsat
(:cnf-encoding-aux-vars   18
 :eliminated-applications 1
 :eliminated-vars         48
 :max-memory              18.34
 :memory                  18.11
 :nlsat-conflicts         6
 :nlsat-decisions         46
 :nlsat-propagations      37
 :num-allocs              69096
 :rlimit-count            19824
 :time                    0.01
 :total-time              0.02)
